NAME: I18626-n50-k6
COMMENT : (Fake et al, No of trucks: 6, Optimal value: )
TYPE : CVRP
DIMENSION : 50
EDGE_WEIGHT_TYPE : EUC_2D
CAPACITY : 24
NODE_COORD_SECTION
1 400 167
2 95 893
3 338 48
4 32 435
5 84 607
6 591 721
7 304 317
8 582 75
9 979 402
10 10 979
11 35 815
12 844 279
13 693 529
14 751 519
15 7 957
16 722 353
17 678 641
18 237 83
19 783 905
20 289 974
21 376 302
22 425 638
23 131 926
24 827 652
25 676 361
26 143 814
27 765 38
28 239 488
29 379 516
30 471 763
31 272 842
32 366 917
33 724 719
34 506 293
35 582 409
36 216 416
37 378 35
38 762 756
39 829 996
40 930 529
41 247 22
42 224 112
43 499 117
44 803 249
45 406 980
46 963 269
47 249 667
48 582 635
49 926 412
50 666 256
DEMAND_SECTION
1 0
2 4
3 4
4 1
5 4
6 4
7 1
8 4
9 1
10 2
11 3
12 3
13 3
14 2
15 4
16 3
17 1
18 2
19 3
20 2
21 1
22 4
23 4
24 3
25 4
26 4
27 2
28 1
29 2
30 3
31 2
32 2
33 1
34 1
35 3
36 3
37 1
38 2
39 4
40 2
41 3
42 1
43 3
44 1
45 4
46 2
47 4
48 2
49 3
50 2
DEPOT_SECTION
 1
 -1
 EOF 